!Put Keywords Here, check Charge and Multiplicity.
#

 

0  1
O          -1.31820         1.72890         2.12200
O           1.82890        -1.30330         2.04830
O           0.34710        -2.35040        -1.18220
O           0.03060         0.81640        -2.72590
O          -1.95810        -3.77350        -0.79260
O           2.34760         2.22580        -3.10010
O          -4.15740        -2.55310         0.36050
O           4.12310         2.54950        -1.00280
C          -0.64370        -0.38030        -0.23030
C           0.60070         0.38490        -0.43440
C          -1.78020         0.21520         0.35810
C           1.52560         0.56490         0.61690
C          -0.73190        -1.73190        -0.61130
C           0.90500         0.95650        -1.68240
C          -1.79230         1.64980         0.78440
C           1.28030         0.00490         1.98440
C          -2.95230        -0.52580         0.54640
C           2.70190         1.29440         0.41260
C          -1.89910        -2.46410        -0.41680
C           2.07870         1.67730        -1.88100
C          -3.00260        -1.85810         0.16050
C           2.97080         1.84230        -0.83400
C          -1.52440         3.06670         2.54700
C           1.01990        -2.03710         2.95280

